n = 2;
m = 2;
num_of_regions = 7;
regions_max_size = 3;

regions = [|
7, 3, 1,1, 2,1, 2,2, |
7, 2, 1,2, 1,3, 0,0, |
3, 2, 1,4, 2,4, 0,0, |
5, 2, 2,3, 3,3, 0,0, |
4, 2, 3,1, 4,1, 0,0, |
6, 2, 3,2, 4,2, 0,0, |
8, 3, 3,4, 4,3, 4,4, |];

matrix = [|
2, 3, 4, 1, |
4, 1, 3, 2, |
1, 4, 2, 3, |
3, 2, 1, 4, |];